; --full-saturate-quant --inst-when=full-last-call --inst-no-entail --term-db-mode=relevant --random-seed=1 --lang=smt2 --tlimit 51
;(set-option :produce-unsat-cores true)
(set-logic ALL_SUPPORTED)
(declare-sort A$ 0)
(declare-sort B$ 0)
(declare-sort Nat$ 0)
(declare-sort A_a_bool_fun_fun$ 0)
(declare-sort A_b_b_b_fun_fun_fun$ 0)
(declare-sort A_b_rbt_a_b_rbt_fun$ 0)
(declare-datatypes () ((Color$ (r$) (b$))
  (A_b_rbt$ (empty$) (branch$ (select$ Color$) (selecta$ A_b_rbt$) (selectb$ A$) (selectc$ B$) (selectd$ A_b_rbt$)))))
(declare-fun lt$ () A_b_rbt$)
(declare-fun rt$ () A_b_rbt$)
(declare-fun suc$ (Nat$) Nat$)
(declare-fun inv1$ (A_b_rbt$) Bool)
(declare-fun inv2$ (A_b_rbt$) Bool)
(declare-fun zero$ () Nat$)
(declare-fun balance$ (A_b_rbt$ A$ B$) A_b_rbt_a_b_rbt_fun$)
(declare-fun bheight$ (A_b_rbt$) Nat$)
(declare-fun combine$ (A_b_rbt$ A_b_rbt$) A_b_rbt$)
(declare-fun fun_app$ (A_b_rbt_a_b_rbt_fun$ A_b_rbt$) A_b_rbt$)
(declare-fun rbt_ins$ (A_a_bool_fun_fun$ A_b_b_b_fun_fun_fun$ A$ B$) A_b_rbt_a_b_rbt_fun$)
(assert (! (not (= (bheight$ (combine$ lt$ rt$)) (bheight$ lt$))) :named a0))
(assert (! (inv2$ lt$) :named a1))
(assert (! (inv2$ rt$) :named a2))
(assert (! (= (bheight$ lt$) (bheight$ rt$)) :named a3))
(assert (! (forall ((?v0 A_b_rbt$)) (! (= (combine$ empty$ ?v0) ?v0) :pattern ((combine$ empty$ ?v0)))) :named a4))
(assert (! (forall ((?v0 A_b_rbt$) (?v1 A_b_rbt$) (?v2 A$) (?v3 B$)) (=> (and (inv2$ ?v0) (and (inv2$ ?v1) (= (bheight$ ?v0) (bheight$ ?v1)))) (inv2$ (fun_app$ (balance$ ?v0 ?v2 ?v3) ?v1)))) :named a5))
(assert (! (forall ((?v0 Color$) (?v1 A_b_rbt$) (?v2 A$) (?v3 B$) (?v4 A_b_rbt$)) (! (= (inv2$ (branch$ ?v0 ?v1 ?v2 ?v3 ?v4)) (and (inv2$ ?v1) (and (inv2$ ?v4) (= (bheight$ ?v1) (bheight$ ?v4))))) :pattern ((branch$ ?v0 ?v1 ?v2 ?v3 ?v4)))) :named a6))
(assert (! (forall ((?v0 A_b_rbt$) (?v1 A_a_bool_fun_fun$) (?v2 A_b_b_b_fun_fun_fun$) (?v3 A$) (?v4 B$)) (=> (and (inv1$ ?v0) (inv2$ ?v0)) (= (bheight$ (fun_app$ (rbt_ins$ ?v1 ?v2 ?v3 ?v4) ?v0)) (bheight$ ?v0)))) :named a7))
(assert (! (forall ((?v0 Color$) (?v1 A_b_rbt$) (?v2 A$) (?v3 B$) (?v4 A_b_rbt$)) (! (= (combine$ (branch$ ?v0 ?v1 ?v2 ?v3 ?v4) empty$) (branch$ ?v0 ?v1 ?v2 ?v3 ?v4)) :pattern ((branch$ ?v0 ?v1 ?v2 ?v3 ?v4)))) :named a8))
(assert (! (= (bheight$ empty$) zero$) :named a9))
(assert (! (forall ((?v0 A_b_rbt$) (?v1 A_b_rbt$) (?v2 A$) (?v3 B$)) (=> (= (bheight$ ?v0) (bheight$ ?v1)) (= (bheight$ (fun_app$ (balance$ ?v0 ?v2 ?v3) ?v1)) (suc$ (bheight$ ?v0))))) :named a10))
(assert (! (forall ((?v0 A_b_rbt$) (?v1 A$) (?v2 B$) (?v3 A_b_rbt$) (?v4 A_b_rbt$) (?v5 A$) (?v6 B$) (?v7 A_b_rbt$)) (! (= (combine$ (branch$ b$ ?v0 ?v1 ?v2 ?v3) (branch$ r$ ?v4 ?v5 ?v6 ?v7)) (branch$ r$ (combine$ (branch$ b$ ?v0 ?v1 ?v2 ?v3) ?v4) ?v5 ?v6 ?v7)) :pattern ((combine$ (branch$ b$ ?v0 ?v1 ?v2 ?v3) (branch$ r$ ?v4 ?v5 ?v6 ?v7))))) :named a11))
(assert (! (forall ((?v0 A_b_rbt$) (?v1 A$) (?v2 B$) (?v3 A_b_rbt$) (?v4 A_b_rbt$) (?v5 A$) (?v6 B$) (?v7 A_b_rbt$)) (! (= (combine$ (branch$ r$ ?v0 ?v1 ?v2 ?v3) (branch$ b$ ?v4 ?v5 ?v6 ?v7)) (branch$ r$ ?v0 ?v1 ?v2 (combine$ ?v3 (branch$ b$ ?v4 ?v5 ?v6 ?v7)))) :pattern ((combine$ (branch$ r$ ?v0 ?v1 ?v2 ?v3) (branch$ b$ ?v4 ?v5 ?v6 ?v7))))) :named a12))
(assert (! (forall ((?v0 Color$) (?v1 A_b_rbt$) (?v2 A$) (?v3 B$) (?v4 A_b_rbt$) (?v5 Color$) (?v6 A_b_rbt$) (?v7 A$) (?v8 B$) (?v9 A_b_rbt$)) (= (= (branch$ ?v0 ?v1 ?v2 ?v3 ?v4) (branch$ ?v5 ?v6 ?v7 ?v8 ?v9)) (and (= ?v0 ?v5) (and (= ?v1 ?v6) (and (= ?v2 ?v7) (and (= ?v3 ?v8) (= ?v4 ?v9))))))) :named a13))
(assert (! (forall ((?v0 A_a_bool_fun_fun$) (?v1 A_b_b_b_fun_fun_fun$) (?v2 A$) (?v3 B$)) (! (= (fun_app$ (rbt_ins$ ?v0 ?v1 ?v2 ?v3) empty$) (branch$ r$ empty$ ?v2 ?v3 empty$)) :pattern ((rbt_ins$ ?v0 ?v1 ?v2 ?v3)))) :named a14))
(assert (! (forall ((?v0 Color$) (?v1 A_b_rbt$) (?v2 A$) (?v3 B$) (?v4 A_b_rbt$) (?v5 A$) (?v6 B$) (?v7 A_b_rbt$) (?v8 A$) (?v9 B$) (?v10 A_b_rbt$) (?v11 A$) (?v12 B$) (?v13 A_b_rbt$) (?v14 A$) (?v15 B$) (?v16 A_b_rbt$)) (! (= (fun_app$ (balance$ (branch$ ?v0 (branch$ b$ ?v1 ?v2 ?v3 ?v4) ?v5 ?v6 (branch$ b$ ?v7 ?v8 ?v9 ?v10)) ?v11 ?v12) (branch$ b$ ?v13 ?v14 ?v15 ?v16)) (branch$ b$ (branch$ ?v0 (branch$ b$ ?v1 ?v2 ?v3 ?v4) ?v5 ?v6 (branch$ b$ ?v7 ?v8 ?v9 ?v10)) ?v11 ?v12 (branch$ b$ ?v13 ?v14 ?v15 ?v16))) :pattern ((fun_app$ (balance$ (branch$ ?v0 (branch$ b$ ?v1 ?v2 ?v3 ?v4) ?v5 ?v6 (branch$ b$ ?v7 ?v8 ?v9 ?v10)) ?v11 ?v12) (branch$ b$ ?v13 ?v14 ?v15 ?v16))))) :named a15))
(assert (! (forall ((?v0 Color$) (?v1 A_b_rbt$) (?v2 A$) (?v3 B$) (?v4 A_b_rbt$) (?v5 A$) (?v6 B$) (?v7 A_b_rbt$) (?v8 A$) (?v9 B$) (?v10 A_b_rbt$) (?v11 A$) (?v12 B$)) (! (= (fun_app$ (balance$ (branch$ ?v0 (branch$ b$ ?v1 ?v2 ?v3 ?v4) ?v5 ?v6 (branch$ b$ ?v7 ?v8 ?v9 ?v10)) ?v11 ?v12) empty$) (branch$ b$ (branch$ ?v0 (branch$ b$ ?v1 ?v2 ?v3 ?v4) ?v5 ?v6 (branch$ b$ ?v7 ?v8 ?v9 ?v10)) ?v11 ?v12 empty$)) :pattern ((balance$ (branch$ ?v0 (branch$ b$ ?v1 ?v2 ?v3 ?v4) ?v5 ?v6 (branch$ b$ ?v7 ?v8 ?v9 ?v10)) ?v11 ?v12)))) :named a16))
(assert (! (forall ((?v0 Color$) (?v1 A_b_rbt$) (?v2 A$) (?v3 B$) (?v4 A_b_rbt$) (?v5 A$) (?v6 B$) (?v7 A$) (?v8 B$) (?v9 A_b_rbt$) (?v10 A$) (?v11 B$) (?v12 A_b_rbt$)) (! (= (fun_app$ (balance$ (branch$ ?v0 (branch$ b$ ?v1 ?v2 ?v3 ?v4) ?v5 ?v6 empty$) ?v7 ?v8) (branch$ b$ ?v9 ?v10 ?v11 ?v12)) (branch$ b$ (branch$ ?v0 (branch$ b$ ?v1 ?v2 ?v3 ?v4) ?v5 ?v6 empty$) ?v7 ?v8 (branch$ b$ ?v9 ?v10 ?v11 ?v12))) :pattern ((fun_app$ (balance$ (branch$ ?v0 (branch$ b$ ?v1 ?v2 ?v3 ?v4) ?v5 ?v6 empty$) ?v7 ?v8) (branch$ b$ ?v9 ?v10 ?v11 ?v12))))) :named a17))
(assert (! (forall ((?v0 Color$) (?v1 A_b_rbt$) (?v2 A$) (?v3 B$) (?v4 A_b_rbt$) (?v5 A$) (?v6 B$) (?v7 A$) (?v8 B$)) (! (= (fun_app$ (balance$ (branch$ ?v0 (branch$ b$ ?v1 ?v2 ?v3 ?v4) ?v5 ?v6 empty$) ?v7 ?v8) empty$) (branch$ b$ (branch$ ?v0 (branch$ b$ ?v1 ?v2 ?v3 ?v4) ?v5 ?v6 empty$) ?v7 ?v8 empty$)) :pattern ((balance$ (branch$ ?v0 (branch$ b$ ?v1 ?v2 ?v3 ?v4) ?v5 ?v6 empty$) ?v7 ?v8)))) :named a18))
(assert (! (forall ((?v0 Color$) (?v1 A$) (?v2 B$) (?v3 A_b_rbt$) (?v4 A$) (?v5 B$) (?v6 A_b_rbt$) (?v7 A$) (?v8 B$) (?v9 A_b_rbt$) (?v10 A$) (?v11 B$) (?v12 A_b_rbt$)) (! (= (fun_app$ (balance$ (branch$ ?v0 empty$ ?v1 ?v2 (branch$ b$ ?v3 ?v4 ?v5 ?v6)) ?v7 ?v8) (branch$ b$ ?v9 ?v10 ?v11 ?v12)) (branch$ b$ (branch$ ?v0 empty$ ?v1 ?v2 (branch$ b$ ?v3 ?v4 ?v5 ?v6)) ?v7 ?v8 (branch$ b$ ?v9 ?v10 ?v11 ?v12))) :pattern ((fun_app$ (balance$ (branch$ ?v0 empty$ ?v1 ?v2 (branch$ b$ ?v3 ?v4 ?v5 ?v6)) ?v7 ?v8) (branch$ b$ ?v9 ?v10 ?v11 ?v12))))) :named a19))
(assert (! (forall ((?v0 Color$) (?v1 A$) (?v2 B$) (?v3 A_b_rbt$) (?v4 A$) (?v5 B$) (?v6 A_b_rbt$) (?v7 A$) (?v8 B$)) (! (= (fun_app$ (balance$ (branch$ ?v0 empty$ ?v1 ?v2 (branch$ b$ ?v3 ?v4 ?v5 ?v6)) ?v7 ?v8) empty$) (branch$ b$ (branch$ ?v0 empty$ ?v1 ?v2 (branch$ b$ ?v3 ?v4 ?v5 ?v6)) ?v7 ?v8 empty$)) :pattern ((balance$ (branch$ ?v0 empty$ ?v1 ?v2 (branch$ b$ ?v3 ?v4 ?v5 ?v6)) ?v7 ?v8)))) :named a20))
(assert (! (forall ((?v0 Color$) (?v1 A$) (?v2 B$) (?v3 A$) (?v4 B$) (?v5 A_b_rbt$) (?v6 A$) (?v7 B$) (?v8 A_b_rbt$)) (! (= (fun_app$ (balance$ (branch$ ?v0 empty$ ?v1 ?v2 empty$) ?v3 ?v4) (branch$ b$ ?v5 ?v6 ?v7 ?v8)) (branch$ b$ (branch$ ?v0 empty$ ?v1 ?v2 empty$) ?v3 ?v4 (branch$ b$ ?v5 ?v6 ?v7 ?v8))) :pattern ((fun_app$ (balance$ (branch$ ?v0 empty$ ?v1 ?v2 empty$) ?v3 ?v4) (branch$ b$ ?v5 ?v6 ?v7 ?v8))))) :named a21))
(assert (! (forall ((?v0 Color$) (?v1 A$) (?v2 B$) (?v3 A$) (?v4 B$)) (! (= (fun_app$ (balance$ (branch$ ?v0 empty$ ?v1 ?v2 empty$) ?v3 ?v4) empty$) (branch$ b$ (branch$ ?v0 empty$ ?v1 ?v2 empty$) ?v3 ?v4 empty$)) :pattern ((balance$ (branch$ ?v0 empty$ ?v1 ?v2 empty$) ?v3 ?v4)))) :named a22))
(assert (! (forall ((?v0 A_b_rbt$) (?v1 A$) (?v2 B$) (?v3 A_b_rbt$) (?v4 A$) (?v5 B$) (?v6 A_b_rbt$) (?v7 A$) (?v8 B$) (?v9 A_b_rbt$) (?v10 A$) (?v11 B$) (?v12 A_b_rbt$)) (! (= (fun_app$ (balance$ (branch$ b$ (branch$ b$ ?v0 ?v1 ?v2 ?v3) ?v4 ?v5 ?v6) ?v7 ?v8) (branch$ b$ ?v9 ?v10 ?v11 ?v12)) (branch$ b$ (branch$ b$ (branch$ b$ ?v0 ?v1 ?v2 ?v3) ?v4 ?v5 ?v6) ?v7 ?v8 (branch$ b$ ?v9 ?v10 ?v11 ?v12))) :pattern ((fun_app$ (balance$ (branch$ b$ (branch$ b$ ?v0 ?v1 ?v2 ?v3) ?v4 ?v5 ?v6) ?v7 ?v8) (branch$ b$ ?v9 ?v10 ?v11 ?v12))))) :named a23))
(assert (! (forall ((?v0 A_b_rbt$) (?v1 A$) (?v2 B$) (?v3 A_b_rbt$) (?v4 A$) (?v5 B$) (?v6 A_b_rbt$) (?v7 A$) (?v8 B$)) (! (= (fun_app$ (balance$ (branch$ b$ (branch$ b$ ?v0 ?v1 ?v2 ?v3) ?v4 ?v5 ?v6) ?v7 ?v8) empty$) (branch$ b$ (branch$ b$ (branch$ b$ ?v0 ?v1 ?v2 ?v3) ?v4 ?v5 ?v6) ?v7 ?v8 empty$)) :pattern ((balance$ (branch$ b$ (branch$ b$ ?v0 ?v1 ?v2 ?v3) ?v4 ?v5 ?v6) ?v7 ?v8)))) :named a24))
(assert (! (forall ((?v0 A_b_rbt$) (?v1 A$) (?v2 B$) (?v3 A_b_rbt$) (?v4 A$) (?v5 B$) (?v6 Color$) (?v7 A_b_rbt$) (?v8 A$) (?v9 B$) (?v10 A_b_rbt$) (?v11 A$) (?v12 B$) (?v13 A_b_rbt$) (?v14 A$) (?v15 B$) (?v16 A_b_rbt$)) (! (= (fun_app$ (balance$ (branch$ b$ ?v0 ?v1 ?v2 ?v3) ?v4 ?v5) (branch$ ?v6 (branch$ b$ ?v7 ?v8 ?v9 ?v10) ?v11 ?v12 (branch$ b$ ?v13 ?v14 ?v15 ?v16))) (branch$ b$ (branch$ b$ ?v0 ?v1 ?v2 ?v3) ?v4 ?v5 (branch$ ?v6 (branch$ b$ ?v7 ?v8 ?v9 ?v10) ?v11 ?v12 (branch$ b$ ?v13 ?v14 ?v15 ?v16)))) :pattern ((fun_app$ (balance$ (branch$ b$ ?v0 ?v1 ?v2 ?v3) ?v4 ?v5) (branch$ ?v6 (branch$ b$ ?v7 ?v8 ?v9 ?v10) ?v11 ?v12 (branch$ b$ ?v13 ?v14 ?v15 ?v16)))))) :named a25))
(assert (! (forall ((?v0 A_b_rbt$) (?v1 A$) (?v2 B$) (?v3 A_b_rbt$) (?v4 A$) (?v5 B$) (?v6 Color$) (?v7 A_b_rbt$) (?v8 A$) (?v9 B$) (?v10 A_b_rbt$) (?v11 A$) (?v12 B$)) (! (= (fun_app$ (balance$ (branch$ b$ ?v0 ?v1 ?v2 ?v3) ?v4 ?v5) (branch$ ?v6 (branch$ b$ ?v7 ?v8 ?v9 ?v10) ?v11 ?v12 empty$)) (branch$ b$ (branch$ b$ ?v0 ?v1 ?v2 ?v3) ?v4 ?v5 (branch$ ?v6 (branch$ b$ ?v7 ?v8 ?v9 ?v10) ?v11 ?v12 empty$))) :pattern ((fun_app$ (balance$ (branch$ b$ ?v0 ?v1 ?v2 ?v3) ?v4 ?v5) (branch$ ?v6 (branch$ b$ ?v7 ?v8 ?v9 ?v10) ?v11 ?v12 empty$))))) :named a26))
(assert (! (forall ((?v0 A_b_rbt$) (?v1 A$) (?v2 B$) (?v3 A_b_rbt$) (?v4 A$) (?v5 B$) (?v6 Color$) (?v7 A$) (?v8 B$) (?v9 A_b_rbt$) (?v10 A$) (?v11 B$) (?v12 A_b_rbt$)) (! (= (fun_app$ (balance$ (branch$ b$ ?v0 ?v1 ?v2 ?v3) ?v4 ?v5) (branch$ ?v6 empty$ ?v7 ?v8 (branch$ b$ ?v9 ?v10 ?v11 ?v12))) (branch$ b$ (branch$ b$ ?v0 ?v1 ?v2 ?v3) ?v4 ?v5 (branch$ ?v6 empty$ ?v7 ?v8 (branch$ b$ ?v9 ?v10 ?v11 ?v12)))) :pattern ((fun_app$ (balance$ (branch$ b$ ?v0 ?v1 ?v2 ?v3) ?v4 ?v5) (branch$ ?v6 empty$ ?v7 ?v8 (branch$ b$ ?v9 ?v10 ?v11 ?v12)))))) :named a27))
(assert (! (forall ((?v0 A_b_rbt$) (?v1 A$) (?v2 B$) (?v3 A_b_rbt$) (?v4 A$) (?v5 B$) (?v6 Color$) (?v7 A$) (?v8 B$)) (! (= (fun_app$ (balance$ (branch$ b$ ?v0 ?v1 ?v2 ?v3) ?v4 ?v5) (branch$ ?v6 empty$ ?v7 ?v8 empty$)) (branch$ b$ (branch$ b$ ?v0 ?v1 ?v2 ?v3) ?v4 ?v5 (branch$ ?v6 empty$ ?v7 ?v8 empty$))) :pattern ((fun_app$ (balance$ (branch$ b$ ?v0 ?v1 ?v2 ?v3) ?v4 ?v5) (branch$ ?v6 empty$ ?v7 ?v8 empty$))))) :named a28))
(assert (! (forall ((?v0 A_b_rbt$) (?v1 A$) (?v2 B$) (?v3 A_b_rbt$) (?v4 A$) (?v5 B$) (?v6 A_b_rbt$) (?v7 A$) (?v8 B$) (?v9 A_b_rbt$) (?v10 A$) (?v11 B$) (?v12 A_b_rbt$)) (! (= (fun_app$ (balance$ (branch$ b$ ?v0 ?v1 ?v2 ?v3) ?v4 ?v5) (branch$ b$ ?v6 ?v7 ?v8 (branch$ b$ ?v9 ?v10 ?v11 ?v12))) (branch$ b$ (branch$ b$ ?v0 ?v1 ?v2 ?v3) ?v4 ?v5 (branch$ b$ ?v6 ?v7 ?v8 (branch$ b$ ?v9 ?v10 ?v11 ?v12)))) :pattern ((fun_app$ (balance$ (branch$ b$ ?v0 ?v1 ?v2 ?v3) ?v4 ?v5) (branch$ b$ ?v6 ?v7 ?v8 (branch$ b$ ?v9 ?v10 ?v11 ?v12)))))) :named a29))
(assert (! (forall ((?v0 A_b_rbt$) (?v1 A$) (?v2 B$) (?v3 A_b_rbt$) (?v4 A$) (?v5 B$) (?v6 A_b_rbt$) (?v7 A$) (?v8 B$) (?v9 A_b_rbt$)) (! (= (fun_app$ (balance$ (branch$ b$ ?v0 ?v1 ?v2 ?v3) ?v4 ?v5) (branch$ b$ ?v6 ?v7 ?v8 ?v9)) (branch$ b$ (branch$ b$ ?v0 ?v1 ?v2 ?v3) ?v4 ?v5 (branch$ b$ ?v6 ?v7 ?v8 ?v9))) :pattern ((fun_app$ (balance$ (branch$ b$ ?v0 ?v1 ?v2 ?v3) ?v4 ?v5) (branch$ b$ ?v6 ?v7 ?v8 ?v9))))) :named a30))
(assert (! (forall ((?v0 A_b_rbt$) (?v1 A$) (?v2 B$) (?v3 A_b_rbt$) (?v4 A$) (?v5 B$) (?v6 A_b_rbt$) (?v7 A$) (?v8 B$) (?v9 A_b_rbt$)) (! (= (fun_app$ (balance$ (branch$ b$ ?v0 ?v1 ?v2 ?v3) ?v4 ?v5) (branch$ b$ ?v6 ?v7 ?v8 ?v9)) (branch$ b$ (branch$ b$ ?v0 ?v1 ?v2 ?v3) ?v4 ?v5 (branch$ b$ ?v6 ?v7 ?v8 ?v9))) :pattern ((fun_app$ (balance$ (branch$ b$ ?v0 ?v1 ?v2 ?v3) ?v4 ?v5) (branch$ b$ ?v6 ?v7 ?v8 ?v9))))) :named a31))
(assert (! (forall ((?v0 A_b_rbt$) (?v1 A$) (?v2 B$) (?v3 A_b_rbt$) (?v4 A$) (?v5 B$) (?v6 A_b_rbt$) (?v7 A$) (?v8 B$)) (! (= (fun_app$ (balance$ (branch$ b$ ?v0 ?v1 ?v2 ?v3) ?v4 ?v5) (branch$ b$ ?v6 ?v7 ?v8 empty$)) (branch$ b$ (branch$ b$ ?v0 ?v1 ?v2 ?v3) ?v4 ?v5 (branch$ b$ ?v6 ?v7 ?v8 empty$))) :pattern ((fun_app$ (balance$ (branch$ b$ ?v0 ?v1 ?v2 ?v3) ?v4 ?v5) (branch$ b$ ?v6 ?v7 ?v8 empty$))))) :named a32))
(assert (! (forall ((?v0 A_b_rbt$) (?v1 A$) (?v2 B$) (?v3 A_b_rbt$) (?v4 A$) (?v5 B$) (?v6 A_b_rbt$) (?v7 A$) (?v8 B$) (?v9 A_b_rbt$) (?v10 A$) (?v11 B$) (?v12 A_b_rbt$) (?v13 A$) (?v14 B$) (?v15 A_b_rbt$)) (! (= (fun_app$ (balance$ (branch$ b$ ?v0 ?v1 ?v2 ?v3) ?v4 ?v5) (branch$ r$ (branch$ r$ ?v6 ?v7 ?v8 ?v9) ?v10 ?v11 (branch$ b$ ?v12 ?v13 ?v14 ?v15))) (branch$ r$ (branch$ b$ (branch$ b$ ?v0 ?v1 ?v2 ?v3) ?v4 ?v5 ?v6) ?v7 ?v8 (branch$ b$ ?v9 ?v10 ?v11 (branch$ b$ ?v12 ?v13 ?v14 ?v15)))) :pattern ((fun_app$ (balance$ (branch$ b$ ?v0 ?v1 ?v2 ?v3) ?v4 ?v5) (branch$ r$ (branch$ r$ ?v6 ?v7 ?v8 ?v9) ?v10 ?v11 (branch$ b$ ?v12 ?v13 ?v14 ?v15)))))) :named a33))
(assert (! (forall ((?v0 A_b_rbt$) (?v1 A$) (?v2 B$) (?v3 A_b_rbt$) (?v4 A$) (?v5 B$) (?v6 A_b_rbt$) (?v7 A$) (?v8 B$) (?v9 A_b_rbt$) (?v10 A$) (?v11 B$)) (! (= (fun_app$ (balance$ (branch$ b$ ?v0 ?v1 ?v2 ?v3) ?v4 ?v5) (branch$ r$ (branch$ r$ ?v6 ?v7 ?v8 ?v9) ?v10 ?v11 empty$)) (branch$ r$ (branch$ b$ (branch$ b$ ?v0 ?v1 ?v2 ?v3) ?v4 ?v5 ?v6) ?v7 ?v8 (branch$ b$ ?v9 ?v10 ?v11 empty$))) :pattern ((fun_app$ (balance$ (branch$ b$ ?v0 ?v1 ?v2 ?v3) ?v4 ?v5) (branch$ r$ (branch$ r$ ?v6 ?v7 ?v8 ?v9) ?v10 ?v11 empty$))))) :named a34))
(assert (! (forall ((?v0 A_b_rbt$) (?v1 A$) (?v2 B$) (?v3 A_b_rbt$) (?v4 A$) (?v5 B$) (?v6 A_b_rbt$) (?v7 A$) (?v8 B$) (?v9 A_b_rbt$) (?v10 A$) (?v11 B$) (?v12 A_b_rbt$)) (! (= (fun_app$ (balance$ (branch$ b$ ?v0 ?v1 ?v2 ?v3) ?v4 ?v5) (branch$ r$ ?v6 ?v7 ?v8 (branch$ r$ ?v9 ?v10 ?v11 ?v12))) (branch$ r$ (branch$ b$ (branch$ b$ ?v0 ?v1 ?v2 ?v3) ?v4 ?v5 ?v6) ?v7 ?v8 (branch$ b$ ?v9 ?v10 ?v11 ?v12))) :pattern ((fun_app$ (balance$ (branch$ b$ ?v0 ?v1 ?v2 ?v3) ?v4 ?v5) (branch$ r$ ?v6 ?v7 ?v8 (branch$ r$ ?v9 ?v10 ?v11 ?v12)))))) :named a35))
(assert (! (forall ((?v0 A_b_rbt$) (?v1 A$) (?v2 B$) (?v3 A_b_rbt$) (?v4 A$) (?v5 B$)) (! (= (fun_app$ (balance$ (branch$ b$ ?v0 ?v1 ?v2 ?v3) ?v4 ?v5) empty$) (branch$ b$ (branch$ b$ ?v0 ?v1 ?v2 ?v3) ?v4 ?v5 empty$)) :pattern ((balance$ (branch$ b$ ?v0 ?v1 ?v2 ?v3) ?v4 ?v5)))) :named a36))
(assert (! (forall ((?v0 A$) (?v1 B$) (?v2 A_b_rbt$) (?v3 A$) (?v4 B$) (?v5 A_b_rbt$) (?v6 A$) (?v7 B$) (?v8 A_b_rbt$)) (! (= (fun_app$ (balance$ (branch$ b$ empty$ ?v0 ?v1 ?v2) ?v3 ?v4) (branch$ b$ ?v5 ?v6 ?v7 ?v8)) (branch$ b$ (branch$ b$ empty$ ?v0 ?v1 ?v2) ?v3 ?v4 (branch$ b$ ?v5 ?v6 ?v7 ?v8))) :pattern ((fun_app$ (balance$ (branch$ b$ empty$ ?v0 ?v1 ?v2) ?v3 ?v4) (branch$ b$ ?v5 ?v6 ?v7 ?v8))))) :named a37))
(assert (! (forall ((?v0 A$) (?v1 B$) (?v2 A_b_rbt$) (?v3 A$) (?v4 B$)) (! (= (fun_app$ (balance$ (branch$ b$ empty$ ?v0 ?v1 ?v2) ?v3 ?v4) empty$) (branch$ b$ (branch$ b$ empty$ ?v0 ?v1 ?v2) ?v3 ?v4 empty$)) :pattern ((balance$ (branch$ b$ empty$ ?v0 ?v1 ?v2) ?v3 ?v4)))) :named a38))
(assert (! (forall ((?v0 A_b_rbt$) (?v1 A$) (?v2 B$) (?v3 A_b_rbt$) (?v4 A$) (?v5 B$) (?v6 A_b_rbt$) (?v7 A$) (?v8 B$) (?v9 A_b_rbt$) (?v10 A$) (?v11 B$) (?v12 A_b_rbt$) (?v13 A$) (?v14 B$) (?v15 A_b_rbt$)) (! (= (fun_app$ (balance$ (branch$ r$ (branch$ b$ ?v0 ?v1 ?v2 ?v3) ?v4 ?v5 (branch$ r$ ?v6 ?v7 ?v8 ?v9)) ?v10 ?v11) (branch$ b$ ?v12 ?v13 ?v14 ?v15)) (branch$ r$ (branch$ b$ (branch$ b$ ?v0 ?v1 ?v2 ?v3) ?v4 ?v5 ?v6) ?v7 ?v8 (branch$ b$ ?v9 ?v10 ?v11 (branch$ b$ ?v12 ?v13 ?v14 ?v15)))) :pattern ((fun_app$ (balance$ (branch$ r$ (branch$ b$ ?v0 ?v1 ?v2 ?v3) ?v4 ?v5 (branch$ r$ ?v6 ?v7 ?v8 ?v9)) ?v10 ?v11) (branch$ b$ ?v12 ?v13 ?v14 ?v15))))) :named a39))
(assert (! (forall ((?v0 A_b_rbt$) (?v1 A$) (?v2 B$) (?v3 A_b_rbt$) (?v4 A$) (?v5 B$) (?v6 A_b_rbt$) (?v7 A$) (?v8 B$) (?v9 A_b_rbt$) (?v10 A$) (?v11 B$)) (! (= (fun_app$ (balance$ (branch$ r$ (branch$ b$ ?v0 ?v1 ?v2 ?v3) ?v4 ?v5 (branch$ r$ ?v6 ?v7 ?v8 ?v9)) ?v10 ?v11) empty$) (branch$ r$ (branch$ b$ (branch$ b$ ?v0 ?v1 ?v2 ?v3) ?v4 ?v5 ?v6) ?v7 ?v8 (branch$ b$ ?v9 ?v10 ?v11 empty$))) :pattern ((balance$ (branch$ r$ (branch$ b$ ?v0 ?v1 ?v2 ?v3) ?v4 ?v5 (branch$ r$ ?v6 ?v7 ?v8 ?v9)) ?v10 ?v11)))) :named a40))
(assert (! (forall ((?v0 A_b_rbt$) (?v1 A$) (?v2 B$) (?v3 A_b_rbt$) (?v4 A$) (?v5 B$) (?v6 A_b_rbt$) (?v7 A$) (?v8 B$) (?v9 A_b_rbt$) (?v10 A$) (?v11 B$) (?v12 A_b_rbt$)) (! (= (fun_app$ (balance$ (branch$ r$ (branch$ r$ ?v0 ?v1 ?v2 ?v3) ?v4 ?v5 ?v6) ?v7 ?v8) (branch$ b$ ?v9 ?v10 ?v11 ?v12)) (branch$ r$ (branch$ b$ ?v0 ?v1 ?v2 ?v3) ?v4 ?v5 (branch$ b$ ?v6 ?v7 ?v8 (branch$ b$ ?v9 ?v10 ?v11 ?v12)))) :pattern ((fun_app$ (balance$ (branch$ r$ (branch$ r$ ?v0 ?v1 ?v2 ?v3) ?v4 ?v5 ?v6) ?v7 ?v8) (branch$ b$ ?v9 ?v10 ?v11 ?v12))))) :named a41))
(assert (! (forall ((?v0 A_b_rbt$) (?v1 A$) (?v2 B$) (?v3 A_b_rbt$) (?v4 A$) (?v5 B$) (?v6 A_b_rbt$) (?v7 A$) (?v8 B$)) (! (= (fun_app$ (balance$ (branch$ r$ (branch$ r$ ?v0 ?v1 ?v2 ?v3) ?v4 ?v5 ?v6) ?v7 ?v8) empty$) (branch$ r$ (branch$ b$ ?v0 ?v1 ?v2 ?v3) ?v4 ?v5 (branch$ b$ ?v6 ?v7 ?v8 empty$))) :pattern ((balance$ (branch$ r$ (branch$ r$ ?v0 ?v1 ?v2 ?v3) ?v4 ?v5 ?v6) ?v7 ?v8)))) :named a42))
(assert (! (forall ((?v0 A_b_rbt$) (?v1 A$) (?v2 B$) (?v3 A_b_rbt$) (?v4 A$) (?v5 B$) (?v6 A_b_rbt$) (?v7 A$) (?v8 B$) (?v9 A_b_rbt$)) (! (= (fun_app$ (balance$ (branch$ r$ ?v0 ?v1 ?v2 ?v3) ?v4 ?v5) (branch$ r$ ?v6 ?v7 ?v8 ?v9)) (branch$ r$ (branch$ b$ ?v0 ?v1 ?v2 ?v3) ?v4 ?v5 (branch$ b$ ?v6 ?v7 ?v8 ?v9))) :pattern ((fun_app$ (balance$ (branch$ r$ ?v0 ?v1 ?v2 ?v3) ?v4 ?v5) (branch$ r$ ?v6 ?v7 ?v8 ?v9))))) :named a43))
(assert (! (forall ((?v0 A$) (?v1 B$) (?v2 A_b_rbt$) (?v3 A$) (?v4 B$) (?v5 A_b_rbt$) (?v6 A$) (?v7 B$) (?v8 A_b_rbt$) (?v9 A$) (?v10 B$) (?v11 A_b_rbt$)) (! (= (fun_app$ (balance$ (branch$ r$ empty$ ?v0 ?v1 (branch$ r$ ?v2 ?v3 ?v4 ?v5)) ?v6 ?v7) (branch$ b$ ?v8 ?v9 ?v10 ?v11)) (branch$ r$ (branch$ b$ empty$ ?v0 ?v1 ?v2) ?v3 ?v4 (branch$ b$ ?v5 ?v6 ?v7 (branch$ b$ ?v8 ?v9 ?v10 ?v11)))) :pattern ((fun_app$ (balance$ (branch$ r$ empty$ ?v0 ?v1 (branch$ r$ ?v2 ?v3 ?v4 ?v5)) ?v6 ?v7) (branch$ b$ ?v8 ?v9 ?v10 ?v11))))) :named a44))
(assert (! (forall ((?v0 A$) (?v1 B$) (?v2 A_b_rbt$) (?v3 A$) (?v4 B$) (?v5 A_b_rbt$) (?v6 A$) (?v7 B$)) (! (= (fun_app$ (balance$ (branch$ r$ empty$ ?v0 ?v1 (branch$ r$ ?v2 ?v3 ?v4 ?v5)) ?v6 ?v7) empty$) (branch$ r$ (branch$ b$ empty$ ?v0 ?v1 ?v2) ?v3 ?v4 (branch$ b$ ?v5 ?v6 ?v7 empty$))) :pattern ((balance$ (branch$ r$ empty$ ?v0 ?v1 (branch$ r$ ?v2 ?v3 ?v4 ?v5)) ?v6 ?v7)))) :named a45))
(assert (! (forall ((?v0 A$) (?v1 B$) (?v2 Color$) (?v3 A_b_rbt$) (?v4 A$) (?v5 B$) (?v6 A_b_rbt$) (?v7 A$) (?v8 B$) (?v9 A_b_rbt$) (?v10 A$) (?v11 B$) (?v12 A_b_rbt$)) (! (= (fun_app$ (balance$ empty$ ?v0 ?v1) (branch$ ?v2 (branch$ b$ ?v3 ?v4 ?v5 ?v6) ?v7 ?v8 (branch$ b$ ?v9 ?v10 ?v11 ?v12))) (branch$ b$ empty$ ?v0 ?v1 (branch$ ?v2 (branch$ b$ ?v3 ?v4 ?v5 ?v6) ?v7 ?v8 (branch$ b$ ?v9 ?v10 ?v11 ?v12)))) :pattern ((fun_app$ (balance$ empty$ ?v0 ?v1) (branch$ ?v2 (branch$ b$ ?v3 ?v4 ?v5 ?v6) ?v7 ?v8 (branch$ b$ ?v9 ?v10 ?v11 ?v12)))))) :named a46))
(assert (! (forall ((?v0 A$) (?v1 B$) (?v2 Color$) (?v3 A_b_rbt$) (?v4 A$) (?v5 B$) (?v6 A_b_rbt$) (?v7 A$) (?v8 B$)) (! (= (fun_app$ (balance$ empty$ ?v0 ?v1) (branch$ ?v2 (branch$ b$ ?v3 ?v4 ?v5 ?v6) ?v7 ?v8 empty$)) (branch$ b$ empty$ ?v0 ?v1 (branch$ ?v2 (branch$ b$ ?v3 ?v4 ?v5 ?v6) ?v7 ?v8 empty$))) :pattern ((fun_app$ (balance$ empty$ ?v0 ?v1) (branch$ ?v2 (branch$ b$ ?v3 ?v4 ?v5 ?v6) ?v7 ?v8 empty$))))) :named a47))
(assert (! (forall ((?v0 A$) (?v1 B$) (?v2 Color$) (?v3 A$) (?v4 B$) (?v5 A_b_rbt$) (?v6 A$) (?v7 B$) (?v8 A_b_rbt$)) (! (= (fun_app$ (balance$ empty$ ?v0 ?v1) (branch$ ?v2 empty$ ?v3 ?v4 (branch$ b$ ?v5 ?v6 ?v7 ?v8))) (branch$ b$ empty$ ?v0 ?v1 (branch$ ?v2 empty$ ?v3 ?v4 (branch$ b$ ?v5 ?v6 ?v7 ?v8)))) :pattern ((fun_app$ (balance$ empty$ ?v0 ?v1) (branch$ ?v2 empty$ ?v3 ?v4 (branch$ b$ ?v5 ?v6 ?v7 ?v8)))))) :named a48))
(assert (! (forall ((?v0 A$) (?v1 B$) (?v2 Color$) (?v3 A$) (?v4 B$)) (! (= (fun_app$ (balance$ empty$ ?v0 ?v1) (branch$ ?v2 empty$ ?v3 ?v4 empty$)) (branch$ b$ empty$ ?v0 ?v1 (branch$ ?v2 empty$ ?v3 ?v4 empty$))) :pattern ((fun_app$ (balance$ empty$ ?v0 ?v1) (branch$ ?v2 empty$ ?v3 ?v4 empty$))))) :named a49))
(assert (! (forall ((?v0 A$) (?v1 B$) (?v2 A_b_rbt$) (?v3 A$) (?v4 B$) (?v5 A_b_rbt$) (?v6 A$) (?v7 B$) (?v8 A_b_rbt$)) (! (= (fun_app$ (balance$ empty$ ?v0 ?v1) (branch$ b$ ?v2 ?v3 ?v4 (branch$ b$ ?v5 ?v6 ?v7 ?v8))) (branch$ b$ empty$ ?v0 ?v1 (branch$ b$ ?v2 ?v3 ?v4 (branch$ b$ ?v5 ?v6 ?v7 ?v8)))) :pattern ((fun_app$ (balance$ empty$ ?v0 ?v1) (branch$ b$ ?v2 ?v3 ?v4 (branch$ b$ ?v5 ?v6 ?v7 ?v8)))))) :named a50))
(assert (! (forall ((?v0 A$) (?v1 B$) (?v2 A_b_rbt$) (?v3 A$) (?v4 B$) (?v5 A_b_rbt$)) (! (= (fun_app$ (balance$ empty$ ?v0 ?v1) (branch$ b$ ?v2 ?v3 ?v4 ?v5)) (branch$ b$ empty$ ?v0 ?v1 (branch$ b$ ?v2 ?v3 ?v4 ?v5))) :pattern ((fun_app$ (balance$ empty$ ?v0 ?v1) (branch$ b$ ?v2 ?v3 ?v4 ?v5))))) :named a51))
(check-sat)
;(get-unsat-core)
